(set-info :original "/var/folders/xz/sgqbj6yn0yv_1mpy6_jqympm0000gn/T/sea-SyaSrr/single_elem_safe.pp.ms.o.bc")
(set-info :authors "SeaHorn v.0.1.0-rc3")
(declare-rel verifier.error (Bool Bool Bool ))
(declare-rel __VERIFIER_assert@_sm ((Array Int Int) (Array Int Int) Int ))
(declare-rel __VERIFIER_assert@_call2 ((Array Int Int) (Array Int Int) Int ))
(declare-rel __VERIFIER_assert (Bool Bool Bool (Array Int Int) (Array Int Int) (Array Int Int) (Array Int Int) Int ))
(declare-rel main@entry ((Array Int Int) Int (Array Int Int) (Array Int Int) ))
(declare-rel main@_bb (Int Int (Array Int Int) (Array Int Int) (Array Int Int) Int ))
(declare-rel main@_bb18 (Int Int (Array Int Int) (Array Int Int) ))
(declare-rel main@verifier.error.split ())
(declare-var __VERIFIER_assert@%sm_0 (Array Int Int) )
(declare-var __VERIFIER_assert@%sm1_0 (Array Int Int) )
(declare-var __VERIFIER_assert@%_call_0 Bool )
(declare-var __VERIFIER_assert@arg.0_0 Int )
(declare-var __VERIFIER_assert@_sm_0 Bool )
(declare-var __VERIFIER_assert@_call2_0 Bool )
(declare-var main@%_20_0 Int )
(declare-var main@%sm8_0 (Array Int Int) )
(declare-var main@%malloc16.i_0 Int )
(declare-var main@%_16_0 Int )
(declare-var main@%_18_0 Int )
(declare-var main@%_12_0 Int )
(declare-var main@%_13_0 Int )
(declare-var main@%_14_0 Bool )
(declare-var main@%_10_0 Bool )
(declare-var main@%shadow.mem.0.2_3 (Array Int Int) )
(declare-var main@%_7_0 Int )
(declare-var main@%_8_0 Int )
(declare-var main@%_3_0 Int )
(declare-var @__VERIFIER_nondet_int_0 Int )
(declare-var main@%_5_0 Bool )
(declare-var main@%_43_0 Bool )
(declare-var main@%_36_0 Int )
(declare-var main@%_37_0 Int )
(declare-var main@%_38_0 Bool )
(declare-var main@%_40_0 Bool )
(declare-var main@%_32_0 Int )
(declare-var main@%_33_0 Int )
(declare-var main@%_34_0 Bool )
(declare-var main@%_27_0 Int )
(declare-var main@%_29_0 Bool )
(declare-var main@%_30_0 Bool )
(declare-var main@%or.cond.i_0 Bool )
(declare-var main@%shadow.mem.8.2_3 (Array Int Int) )
(declare-var main@%shadow.mem.0.4_3 (Array Int Int) )
(declare-var main@%_25_0 Bool )
(declare-var main@%malloc25.i_0 Int )
(declare-var main@%_23_0 Int )
(declare-var main@%_1_0 Bool )
(declare-var main@%sm9_0 (Array Int Int) )
(declare-var main@%sm7_0 (Array Int Int) )
(declare-var main@entry_0 Bool )
(declare-var @a_0 Int )
(declare-var main@%sm_0 (Array Int Int) )
(declare-var main@_bb_0 Bool )
(declare-var main@%shadow.mem.8.0_0 (Array Int Int) )
(declare-var main@%shadow.mem.0.0_0 (Array Int Int) )
(declare-var main@%.04.i_0 Int )
(declare-var main@%shadow.mem.8.0_1 (Array Int Int) )
(declare-var main@%shadow.mem.0.0_1 (Array Int Int) )
(declare-var main@%.04.i_1 Int )
(declare-var main@_bb10_0 Bool )
(declare-var main@%_4_0 Int )
(declare-var main@_bb11_0 Bool )
(declare-var main@%malloc7.i_0 Int )
(declare-var main@%sm1_0 (Array Int Int) )
(declare-var main@_bb12_0 Bool )
(declare-var |tuple(main@_bb10_0, main@_bb12_0)| Bool )
(declare-var main@%shadow.mem.0.1_0 (Array Int Int) )
(declare-var main@%.0.i_0 Int )
(declare-var main@%shadow.mem.0.1_1 (Array Int Int) )
(declare-var main@%.0.i_1 Int )
(declare-var main@%shadow.mem.0.1_2 (Array Int Int) )
(declare-var main@%.0.i_2 Int )
(declare-var main@_bb13_0 Bool )
(declare-var main@_bb15_0 Bool )
(declare-var main@%sm3_0 (Array Int Int) )
(declare-var main@_bb14_0 Bool )
(declare-var main@%sm2_0 (Array Int Int) )
(declare-var main@_bb16_0 Bool )
(declare-var |tuple(main@_bb12_0, main@_bb16_0)| Bool )
(declare-var main@%shadow.mem.0.2_0 (Array Int Int) )
(declare-var main@%shadow.mem.0.2_1 (Array Int Int) )
(declare-var main@%shadow.mem.0.2_2 (Array Int Int) )
(declare-var main@%sm4_0 (Array Int Int) )
(declare-var main@%_21_0 Int )
(declare-var main@_bb_1 Bool )
(declare-var main@%shadow.mem.8.0_2 (Array Int Int) )
(declare-var main@%shadow.mem.0.0_2 (Array Int Int) )
(declare-var main@%.04.i_2 Int )
(declare-var main@_bb17_0 Bool )
(declare-var main@%sm5_0 (Array Int Int) )
(declare-var main@_bb18_0 Bool )
(declare-var main@%shadow.mem.8.1_0 (Array Int Int) )
(declare-var main@%shadow.mem.0.3_0 (Array Int Int) )
(declare-var main@%.1.i_0 Int )
(declare-var main@%shadow.mem.8.1_1 (Array Int Int) )
(declare-var main@%shadow.mem.0.3_1 (Array Int Int) )
(declare-var main@%.1.i_1 Int )
(declare-var main@_bb19_0 Bool )
(declare-var main@%_28_0 Int )
(declare-var main@_bb20_0 Bool )
(declare-var main@_bb21_0 Bool )
(declare-var main@%_39_0 Int )
(declare-var main@postcall_0 Bool )
(declare-var main@%sh_0 (Array Int Int) )
(declare-var main@%sh6_0 (Array Int Int) )
(declare-var main@_bb22_0 Bool )
(declare-var |tuple(main@_bb20_0, main@_bb22_0)| Bool )
(declare-var |tuple(main@_bb19_0, main@_bb22_0)| Bool )
(declare-var main@%shadow.mem.8.2_0 (Array Int Int) )
(declare-var main@%shadow.mem.0.4_0 (Array Int Int) )
(declare-var main@%shadow.mem.8.2_1 (Array Int Int) )
(declare-var main@%shadow.mem.0.4_1 (Array Int Int) )
(declare-var main@%shadow.mem.8.2_2 (Array Int Int) )
(declare-var main@%shadow.mem.0.4_2 (Array Int Int) )
(declare-var main@%_42_0 Int )
(declare-var main@_bb18_1 Bool )
(declare-var main@%shadow.mem.8.1_2 (Array Int Int) )
(declare-var main@%shadow.mem.0.3_2 (Array Int Int) )
(declare-var main@%.1.i_2 Int )
(declare-var main@precall_0 Bool )
(declare-var main@__VERIFIER_assert_0 Bool )
(declare-var main@_bb23_0 Bool )
(declare-var main@verifier.error_0 Bool )
(declare-var main@verifier.error.split_0 Bool )
(rule (verifier.error false false false))
(rule (verifier.error false true true))
(rule (verifier.error true false true))
(rule (verifier.error true true true))
(rule (__VERIFIER_assert
  true
  true
  true
  __VERIFIER_assert@%sm_0
  __VERIFIER_assert@%sm_0
  __VERIFIER_assert@%sm1_0
  __VERIFIER_assert@%sm1_0
  __VERIFIER_assert@arg.0_0))
(rule (__VERIFIER_assert
  false
  true
  true
  __VERIFIER_assert@%sm_0
  __VERIFIER_assert@%sm_0
  __VERIFIER_assert@%sm1_0
  __VERIFIER_assert@%sm1_0
  __VERIFIER_assert@arg.0_0))
(rule (__VERIFIER_assert
  false
  false
  false
  __VERIFIER_assert@%sm_0
  __VERIFIER_assert@%sm_0
  __VERIFIER_assert@%sm1_0
  __VERIFIER_assert@%sm1_0
  __VERIFIER_assert@arg.0_0))
(rule (__VERIFIER_assert@_sm
  __VERIFIER_assert@%sm_0
  __VERIFIER_assert@%sm1_0
  __VERIFIER_assert@arg.0_0))
(rule (=> (and (__VERIFIER_assert@_sm
           __VERIFIER_assert@%sm_0
           __VERIFIER_assert@%sm1_0
           __VERIFIER_assert@arg.0_0)
         true
         (= __VERIFIER_assert@%_call_0 (= __VERIFIER_assert@arg.0_0 0))
         (not __VERIFIER_assert@%_call_0)
         (=> __VERIFIER_assert@_call2_0
             (and __VERIFIER_assert@_call2_0 __VERIFIER_assert@_sm_0))
         __VERIFIER_assert@_call2_0)
    (__VERIFIER_assert@_call2
      __VERIFIER_assert@%sm_0
      __VERIFIER_assert@%sm1_0
      __VERIFIER_assert@arg.0_0)))
(rule (=> (__VERIFIER_assert@_call2
      __VERIFIER_assert@%sm_0
      __VERIFIER_assert@%sm1_0
      __VERIFIER_assert@arg.0_0)
    (__VERIFIER_assert
      true
      false
      false
      __VERIFIER_assert@%sm_0
      __VERIFIER_assert@%sm_0
      __VERIFIER_assert@%sm1_0
      __VERIFIER_assert@%sm1_0
      __VERIFIER_assert@arg.0_0)))
(rule (main@entry main@%sm8_0 @__VERIFIER_nondet_int_0 main@%sm9_0 main@%sm7_0))
(rule (=> (and (main@entry main@%sm8_0
                     @__VERIFIER_nondet_int_0
                     main@%sm9_0
                     main@%sm7_0)
         true
         (= main@%sm_0 main@%sm9_0)
         (=> main@_bb_0 (and main@_bb_0 main@entry_0))
         (=> (and main@_bb_0 main@entry_0)
             (= main@%shadow.mem.8.0_0 main@%sm_0))
         (=> (and main@_bb_0 main@entry_0)
             (= main@%shadow.mem.0.0_0 main@%sm7_0))
         (=> (and main@_bb_0 main@entry_0) (= main@%.04.i_0 0))
         (=> (and main@_bb_0 main@entry_0)
             (= main@%shadow.mem.8.0_1 main@%shadow.mem.8.0_0))
         (=> (and main@_bb_0 main@entry_0)
             (= main@%shadow.mem.0.0_1 main@%shadow.mem.0.0_0))
         (=> (and main@_bb_0 main@entry_0) (= main@%.04.i_1 main@%.04.i_0))
         main@_bb_0)
    (main@_bb @a_0
              main@%.04.i_1
              main@%shadow.mem.8.0_1
              main@%shadow.mem.0.0_1
              main@%sm8_0
              @__VERIFIER_nondet_int_0)))
(rule (let ((a!1 (=> main@_bb11_0 (= main@%_8_0 (+ main@%malloc7.i_0 (* 0 8) 4))))
      (a!2 (= main@%_12_0 (+ (+ main@%.0.i_2 (* 0 8)) 4)))
      (a!3 (= main@%_18_0 (+ (+ main@%.0.i_2 (* 0 8)) 0)))
      (a!4 (= main@%_16_0 (+ (+ main@%.0.i_2 (* 0 8)) 0)))
      (a!5 (=> main@_bb16_0
               (= main@%_20_0 (+ @a_0 (* 0 4000000) (* main@%.04.i_0 4))))))
(let ((a!6 (and (main@_bb @a_0
                          main@%.04.i_0
                          main@%shadow.mem.8.0_0
                          main@%shadow.mem.0.0_0
                          main@%sm8_0
                          @__VERIFIER_nondet_int_0)
                true
                (= main@%_1_0 (< main@%.04.i_0 1000000))
                (=> main@_bb10_0 (and main@_bb10_0 main@_bb_0))
                (=> (and main@_bb10_0 main@_bb_0) main@%_1_0)
                (=> main@_bb10_0 (= main@%_3_0 @__VERIFIER_nondet_int_0))
                (=> main@_bb10_0 (= main@%_5_0 (= main@%_4_0 0)))
                (=> main@_bb11_0 (and main@_bb11_0 main@_bb10_0))
                (=> (and main@_bb11_0 main@_bb10_0) main@%_5_0)
                (=> main@_bb11_0 (> main@%malloc7.i_0 0))
                (=> main@_bb11_0 (= main@%_7_0 (rem main@%_4_0 2)))
                a!1
                (=> main@_bb11_0 (or (<= main@%malloc7.i_0 0) (> main@%_8_0 0)))
                (=> main@_bb11_0 (> main@%malloc7.i_0 0))
                (=> main@_bb11_0
                    (= main@%sm1_0
                       (store main@%shadow.mem.0.0_0 main@%_8_0 main@%_7_0)))
                (=> |tuple(main@_bb10_0, main@_bb12_0)| main@_bb10_0)
                (=> main@_bb12_0
                    (or (and main@_bb12_0 main@_bb11_0)
                        |tuple(main@_bb10_0, main@_bb12_0)|))
                (=> |tuple(main@_bb10_0, main@_bb12_0)| (not main@%_5_0))
                (=> (and main@_bb12_0 main@_bb11_0)
                    (= main@%shadow.mem.0.1_0 main@%sm1_0))
                (=> (and main@_bb12_0 main@_bb11_0)
                    (= main@%.0.i_0 main@%malloc7.i_0))
                (=> |tuple(main@_bb10_0, main@_bb12_0)|
                    (= main@%shadow.mem.0.1_1 main@%shadow.mem.0.0_0))
                (=> |tuple(main@_bb10_0, main@_bb12_0)| (= main@%.0.i_1 0))
                (=> (and main@_bb12_0 main@_bb11_0)
                    (= main@%shadow.mem.0.1_2 main@%shadow.mem.0.1_0))
                (=> (and main@_bb12_0 main@_bb11_0)
                    (= main@%.0.i_2 main@%.0.i_0))
                (=> |tuple(main@_bb10_0, main@_bb12_0)|
                    (= main@%shadow.mem.0.1_2 main@%shadow.mem.0.1_1))
                (=> |tuple(main@_bb10_0, main@_bb12_0)|
                    (= main@%.0.i_2 main@%.0.i_1))
                (=> main@_bb12_0 (= main@%_10_0 (= main@%.0.i_2 0)))
                (=> main@_bb13_0 (and main@_bb13_0 main@_bb12_0))
                (=> (and main@_bb13_0 main@_bb12_0) (not main@%_10_0))
                (=> main@_bb13_0 a!2)
                (=> main@_bb13_0 (or (<= main@%.0.i_2 0) (> main@%_12_0 0)))
                (=> main@_bb13_0 (> main@%.0.i_2 0))
                (=> main@_bb13_0
                    (= main@%_13_0 (select main@%shadow.mem.0.1_2 main@%_12_0)))
                (=> main@_bb13_0 (= main@%_14_0 (= main@%_13_0 0)))
                (=> main@_bb15_0 (and main@_bb15_0 main@_bb13_0))
                (=> (and main@_bb15_0 main@_bb13_0) (not main@%_14_0))
                (=> main@_bb15_0 a!3)
                (=> main@_bb15_0 (or (<= main@%.0.i_2 0) (> main@%_18_0 0)))
                (=> main@_bb15_0
                    (= main@%sm3_0 (store main@%shadow.mem.0.1_2 main@%_18_0 0)))
                (=> main@_bb14_0 (and main@_bb14_0 main@_bb13_0))
                (=> (and main@_bb14_0 main@_bb13_0) main@%_14_0)
                (=> main@_bb14_0 (> main@%malloc16.i_0 0))
                (=> main@_bb14_0 a!4)
                (=> main@_bb14_0 (or (<= main@%.0.i_2 0) (> main@%_16_0 0)))
                (=> main@_bb14_0
                    (= main@%sm2_0
                       (store main@%shadow.mem.0.1_2
                              main@%_16_0
                              main@%malloc16.i_0)))
                (=> |tuple(main@_bb12_0, main@_bb16_0)| main@_bb12_0)
                (=> main@_bb16_0
                    (or (and main@_bb16_0 main@_bb15_0)
                        (and main@_bb16_0 main@_bb14_0)
                        |tuple(main@_bb12_0, main@_bb16_0)|))
                (=> |tuple(main@_bb12_0, main@_bb16_0)| main@%_10_0)
                (=> (and main@_bb16_0 main@_bb15_0)
                    (= main@%shadow.mem.0.2_0 main@%sm3_0))
                (=> (and main@_bb16_0 main@_bb14_0)
                    (= main@%shadow.mem.0.2_1 main@%sm2_0))
                (=> |tuple(main@_bb12_0, main@_bb16_0)|
                    (= main@%shadow.mem.0.2_2 main@%shadow.mem.0.1_2))
                (=> (and main@_bb16_0 main@_bb15_0)
                    (= main@%shadow.mem.0.2_3 main@%shadow.mem.0.2_0))
                (=> (and main@_bb16_0 main@_bb14_0)
                    (= main@%shadow.mem.0.2_3 main@%shadow.mem.0.2_1))
                (=> |tuple(main@_bb12_0, main@_bb16_0)|
                    (= main@%shadow.mem.0.2_3 main@%shadow.mem.0.2_2))
                a!5
                (=> main@_bb16_0 (or (<= @a_0 0) (> main@%_20_0 0)))
                (=> main@_bb16_0 (> @a_0 0))
                (=> main@_bb16_0
                    (= main@%sm4_0
                       (store main@%shadow.mem.8.0_0 main@%_20_0 main@%.0.i_2)))
                (=> main@_bb16_0 (= main@%_21_0 (+ main@%.04.i_0 1)))
                (=> main@_bb_1 (and main@_bb_1 main@_bb16_0))
                (=> (and main@_bb_1 main@_bb16_0)
                    (= main@%shadow.mem.8.0_1 main@%sm4_0))
                (=> (and main@_bb_1 main@_bb16_0)
                    (= main@%shadow.mem.0.0_1 main@%shadow.mem.0.2_3))
                (=> (and main@_bb_1 main@_bb16_0) (= main@%.04.i_1 main@%_21_0))
                (=> (and main@_bb_1 main@_bb16_0)
                    (= main@%shadow.mem.8.0_2 main@%shadow.mem.8.0_1))
                (=> (and main@_bb_1 main@_bb16_0)
                    (= main@%shadow.mem.0.0_2 main@%shadow.mem.0.0_1))
                (=> (and main@_bb_1 main@_bb16_0)
                    (= main@%.04.i_2 main@%.04.i_1))
                main@_bb_1)))
  (=> a!6
      (main@_bb @a_0
                main@%.04.i_2
                main@%shadow.mem.8.0_2
                main@%shadow.mem.0.0_2
                main@%sm8_0
                @__VERIFIER_nondet_int_0)))))
(rule (let ((a!1 (=> main@_bb17_0 (= main@%_23_0 (+ @a_0 (* 0 4000000) (* 3 4))))))
(let ((a!2 (and (main@_bb @a_0
                          main@%.04.i_0
                          main@%shadow.mem.8.0_0
                          main@%shadow.mem.0.0_0
                          main@%sm8_0
                          @__VERIFIER_nondet_int_0)
                true
                (= main@%_1_0 (< main@%.04.i_0 1000000))
                (=> main@_bb17_0 (and main@_bb17_0 main@_bb_0))
                (=> (and main@_bb17_0 main@_bb_0) (not main@%_1_0))
                (=> main@_bb17_0 (> main@%malloc25.i_0 0))
                a!1
                (=> main@_bb17_0 (or (<= @a_0 0) (> main@%_23_0 0)))
                (=> main@_bb17_0 (> @a_0 0))
                (=> main@_bb17_0
                    (= main@%sm5_0
                       (store main@%shadow.mem.8.0_0
                              main@%_23_0
                              main@%malloc25.i_0)))
                (=> main@_bb18_0 (and main@_bb18_0 main@_bb17_0))
                (=> (and main@_bb18_0 main@_bb17_0)
                    (= main@%shadow.mem.8.1_0 main@%sm5_0))
                (=> (and main@_bb18_0 main@_bb17_0)
                    (= main@%shadow.mem.0.3_0 main@%shadow.mem.0.0_0))
                (=> (and main@_bb18_0 main@_bb17_0) (= main@%.1.i_0 0))
                (=> (and main@_bb18_0 main@_bb17_0)
                    (= main@%shadow.mem.8.1_1 main@%shadow.mem.8.1_0))
                (=> (and main@_bb18_0 main@_bb17_0)
                    (= main@%shadow.mem.0.3_1 main@%shadow.mem.0.3_0))
                (=> (and main@_bb18_0 main@_bb17_0)
                    (= main@%.1.i_1 main@%.1.i_0))
                main@_bb18_0)))
  (=> a!2
      (main@_bb18 @a_0
                  main@%.1.i_1
                  main@%shadow.mem.8.1_1
                  main@%shadow.mem.0.3_1)))))
(rule (let ((a!1 (=> main@_bb19_0
               (= main@%_27_0 (+ @a_0 (* 0 4000000) (* main@%.1.i_0 4)))))
      (a!2 (=> main@_bb19_0 (= main@%_29_0 (not (= main@%.1.i_0 3)))))
      (a!3 (=> main@_bb19_0 (= main@%_30_0 (not (= main@%_28_0 0)))))
      (a!4 (= main@%_32_0 (+ (+ main@%_28_0 (* 0 8)) 4)))
      (a!5 (= main@%_36_0 (+ (+ main@%_28_0 (* 0 8)) 0)))
      (a!6 (=> main@_bb21_0 (= main@%_38_0 (not (= main@%_37_0 0))))))
(let ((a!7 (and (main@_bb18 @a_0
                            main@%.1.i_0
                            main@%shadow.mem.8.1_0
                            main@%shadow.mem.0.3_0)
                true
                (= main@%_25_0 (< main@%.1.i_0 1000000))
                main@%_25_0
                (=> main@_bb19_0 (and main@_bb19_0 main@_bb18_0))
                a!1
                (=> main@_bb19_0 (or (<= @a_0 0) (> main@%_27_0 0)))
                (=> main@_bb19_0 (> @a_0 0))
                (=> main@_bb19_0
                    (= main@%_28_0 (select main@%shadow.mem.8.1_0 main@%_27_0)))
                a!2
                a!3
                (=> main@_bb19_0
                    (= main@%or.cond.i_0 (and main@%_29_0 main@%_30_0)))
                (=> main@_bb20_0 (and main@_bb20_0 main@_bb19_0))
                (=> (and main@_bb20_0 main@_bb19_0) main@%or.cond.i_0)
                (=> main@_bb20_0 a!4)
                (=> main@_bb20_0 (or (<= main@%_28_0 0) (> main@%_32_0 0)))
                (=> main@_bb20_0 (> main@%_28_0 0))
                (=> main@_bb20_0
                    (= main@%_33_0 (select main@%shadow.mem.0.3_0 main@%_32_0)))
                (=> main@_bb20_0 (= main@%_34_0 (= main@%_33_0 0)))
                (=> main@_bb21_0 (and main@_bb21_0 main@_bb20_0))
                (=> (and main@_bb21_0 main@_bb20_0) main@%_34_0)
                (=> main@_bb21_0 a!5)
                (=> main@_bb21_0 (or (<= main@%_28_0 0) (> main@%_36_0 0)))
                (=> main@_bb21_0
                    (= main@%_37_0 (select main@%shadow.mem.0.3_0 main@%_36_0)))
                a!6
                (=> main@_bb21_0 (= main@%_39_0 (ite main@%_38_0 1 0)))
                (=> main@postcall_0 (and main@postcall_0 main@_bb21_0))
                (=> (and main@postcall_0 main@_bb21_0) main@%_40_0)
                (__VERIFIER_assert
                  main@postcall_0
                  false
                  false
                  main@%shadow.mem.0.3_0
                  main@%sh_0
                  main@%shadow.mem.8.1_0
                  main@%sh6_0
                  main@%_39_0)
                (=> |tuple(main@_bb20_0, main@_bb22_0)| main@_bb20_0)
                (=> |tuple(main@_bb19_0, main@_bb22_0)| main@_bb19_0)
                (=> main@_bb22_0
                    (or (and main@_bb22_0 main@postcall_0)
                        |tuple(main@_bb20_0, main@_bb22_0)|
                        |tuple(main@_bb19_0, main@_bb22_0)|))
                (=> |tuple(main@_bb20_0, main@_bb22_0)| (not main@%_34_0))
                (=> |tuple(main@_bb19_0, main@_bb22_0)| (not main@%or.cond.i_0))
                (=> (and main@_bb22_0 main@postcall_0)
                    (= main@%shadow.mem.8.2_0 main@%sh6_0))
                (=> (and main@_bb22_0 main@postcall_0)
                    (= main@%shadow.mem.0.4_0 main@%sh_0))
                (=> |tuple(main@_bb20_0, main@_bb22_0)|
                    (= main@%shadow.mem.8.2_1 main@%shadow.mem.8.1_0))
                (=> |tuple(main@_bb20_0, main@_bb22_0)|
                    (= main@%shadow.mem.0.4_1 main@%shadow.mem.0.3_0))
                (=> |tuple(main@_bb19_0, main@_bb22_0)|
                    (= main@%shadow.mem.8.2_2 main@%shadow.mem.8.1_0))
                (=> |tuple(main@_bb19_0, main@_bb22_0)|
                    (= main@%shadow.mem.0.4_2 main@%shadow.mem.0.3_0))
                (=> (and main@_bb22_0 main@postcall_0)
                    (= main@%shadow.mem.8.2_3 main@%shadow.mem.8.2_0))
                (=> (and main@_bb22_0 main@postcall_0)
                    (= main@%shadow.mem.0.4_3 main@%shadow.mem.0.4_0))
                (=> |tuple(main@_bb20_0, main@_bb22_0)|
                    (= main@%shadow.mem.8.2_3 main@%shadow.mem.8.2_1))
                (=> |tuple(main@_bb20_0, main@_bb22_0)|
                    (= main@%shadow.mem.0.4_3 main@%shadow.mem.0.4_1))
                (=> |tuple(main@_bb19_0, main@_bb22_0)|
                    (= main@%shadow.mem.8.2_3 main@%shadow.mem.8.2_2))
                (=> |tuple(main@_bb19_0, main@_bb22_0)|
                    (= main@%shadow.mem.0.4_3 main@%shadow.mem.0.4_2))
                (=> main@_bb22_0 (= main@%_42_0 (+ main@%.1.i_0 1)))
                (=> main@_bb18_1 (and main@_bb18_1 main@_bb22_0))
                (=> (and main@_bb18_1 main@_bb22_0)
                    (= main@%shadow.mem.8.1_1 main@%shadow.mem.8.2_3))
                (=> (and main@_bb18_1 main@_bb22_0)
                    (= main@%shadow.mem.0.3_1 main@%shadow.mem.0.4_3))
                (=> (and main@_bb18_1 main@_bb22_0)
                    (= main@%.1.i_1 main@%_42_0))
                (=> (and main@_bb18_1 main@_bb22_0)
                    (= main@%shadow.mem.8.1_2 main@%shadow.mem.8.1_1))
                (=> (and main@_bb18_1 main@_bb22_0)
                    (= main@%shadow.mem.0.3_2 main@%shadow.mem.0.3_1))
                (=> (and main@_bb18_1 main@_bb22_0)
                    (= main@%.1.i_2 main@%.1.i_1))
                main@_bb18_1)))
  (=> a!7
      (main@_bb18 @a_0
                  main@%.1.i_2
                  main@%shadow.mem.8.1_2
                  main@%shadow.mem.0.3_2)))))
(rule (let ((a!1 (=> main@_bb19_0
               (= main@%_27_0 (+ @a_0 (* 0 4000000) (* main@%.1.i_0 4)))))
      (a!2 (=> main@_bb19_0 (= main@%_29_0 (not (= main@%.1.i_0 3)))))
      (a!3 (=> main@_bb19_0 (= main@%_30_0 (not (= main@%_28_0 0)))))
      (a!4 (= main@%_32_0 (+ (+ main@%_28_0 (* 0 8)) 4)))
      (a!5 (= main@%_36_0 (+ (+ main@%_28_0 (* 0 8)) 0)))
      (a!6 (=> main@_bb21_0 (= main@%_38_0 (not (= main@%_37_0 0))))))
(let ((a!7 (and (main@_bb18 @a_0
                            main@%.1.i_0
                            main@%shadow.mem.8.1_0
                            main@%shadow.mem.0.3_0)
                true
                (= main@%_25_0 (< main@%.1.i_0 1000000))
                main@%_25_0
                (=> main@_bb19_0 (and main@_bb19_0 main@_bb18_0))
                a!1
                (=> main@_bb19_0 (or (<= @a_0 0) (> main@%_27_0 0)))
                (=> main@_bb19_0 (> @a_0 0))
                (=> main@_bb19_0
                    (= main@%_28_0 (select main@%shadow.mem.8.1_0 main@%_27_0)))
                a!2
                a!3
                (=> main@_bb19_0
                    (= main@%or.cond.i_0 (and main@%_29_0 main@%_30_0)))
                (=> main@_bb20_0 (and main@_bb20_0 main@_bb19_0))
                (=> (and main@_bb20_0 main@_bb19_0) main@%or.cond.i_0)
                (=> main@_bb20_0 a!4)
                (=> main@_bb20_0 (or (<= main@%_28_0 0) (> main@%_32_0 0)))
                (=> main@_bb20_0 (> main@%_28_0 0))
                (=> main@_bb20_0
                    (= main@%_33_0 (select main@%shadow.mem.0.3_0 main@%_32_0)))
                (=> main@_bb20_0 (= main@%_34_0 (= main@%_33_0 0)))
                (=> main@_bb21_0 (and main@_bb21_0 main@_bb20_0))
                (=> (and main@_bb21_0 main@_bb20_0) main@%_34_0)
                (=> main@_bb21_0 a!5)
                (=> main@_bb21_0 (or (<= main@%_28_0 0) (> main@%_36_0 0)))
                (=> main@_bb21_0
                    (= main@%_37_0 (select main@%shadow.mem.0.3_0 main@%_36_0)))
                a!6
                (=> main@_bb21_0 (= main@%_39_0 (ite main@%_38_0 1 0)))
                (=> main@precall_0 (and main@precall_0 main@_bb21_0))
                (=> (and main@precall_0 main@_bb21_0) (not main@%_40_0))
                (=> main@__VERIFIER_assert_0
                    (and main@__VERIFIER_assert_0 main@precall_0))
                (=> main@__VERIFIER_assert_0 (= main@%_43_0 (= main@%_39_0 0)))
                (=> main@__VERIFIER_assert_0 main@%_43_0)
                (=> main@_bb23_0 (and main@_bb23_0 main@__VERIFIER_assert_0))
                (=> main@verifier.error_0
                    (and main@verifier.error_0 main@_bb23_0))
                (=> main@verifier.error.split_0
                    (and main@verifier.error.split_0 main@verifier.error_0))
                main@verifier.error.split_0)))
  (=> a!7 main@verifier.error.split))))
(query main@verifier.error.split)

